p cnf 386 460
-15 -13 7 21 22 0
-15 -13 7 21 -22 0
-15 -13 7 -21 23 0
-15 -13 7 -21 -23 0
13 -15 1 24 25 0
13 -15 1 24 -25 0
13 -15 1 -24 26 0
13 -15 1 -24 -26 0
16 -14 18 27 28 0
16 -14 18 27 -28 0
16 -14 18 -27 29 0
16 -14 18 -27 -29 0
-19 -20 -7 30 31 0
-19 -20 -7 30 -31 0
-19 -20 -7 -30 32 0
-19 -20 -7 -30 -32 0
-5 4 16 33 34 0
-5 4 16 33 -34 0
-5 4 16 -33 35 0
-5 4 16 -33 -35 0
5 14 -19 36 37 0
5 14 -19 36 -37 0
5 14 -19 -36 38 0
5 14 -19 -36 -38 0
-3 2 -17 39 40 0
-3 2 -17 39 -40 0
-3 2 -17 -39 41 0
-3 2 -17 -39 -41 0
10 1 -15 42 43 0
10 1 -15 42 -43 0
10 1 -15 -42 44 0
10 1 -15 -42 -44 0
-2 10 -13 45 46 0
-2 10 -13 45 -46 0
-2 10 -13 -45 47 0
-2 10 -13 -45 -47 0
-1 8 -13 48 49 0
-1 8 -13 48 -49 0
-1 8 -13 -48 50 0
-1 8 -13 -48 -50 0
-16 1 -14 51 52 0
-16 1 -14 51 -52 0
-16 1 -14 -51 53 0
-16 1 -14 -51 -53 0
7 11 -16 54 55 0
7 11 -16 54 -55 0
7 11 -16 -54 56 0
7 11 -16 -54 -56 0
15 -16 19 57 58 0
15 -16 19 57 -58 0
15 -16 19 -57 59 0
15 -16 19 -57 -59 0
-2 -19 -11 60 61 0
-2 -19 -11 60 -61 0
-2 -19 -11 -60 62 0
-2 -19 -11 -60 -62 0
11 16 2 63 64 0
11 16 2 63 -64 0
11 16 2 -63 65 0
11 16 2 -63 -65 0
-3 -2 -11 66 67 0
-3 -2 -11 66 -67 0
-3 -2 -11 -66 68 0
-3 -2 -11 -66 -68 0
11 3 -10 69 70 0
11 3 -10 69 -70 0
11 3 -10 -69 71 0
11 3 -10 -69 -71 0
5 20 12 72 73 0
5 20 12 72 -73 0
5 20 12 -72 74 0
5 20 12 -72 -74 0
-5 11 8 75 76 0
-5 11 8 75 -76 0
-5 11 8 -75 77 0
-5 11 8 -75 -77 0
-10 -15 18 78 79 0
-10 -15 18 78 -79 0
-10 -15 18 -78 80 0
-10 -15 18 -78 -80 0
-2 -1 6 81 82 0
-2 -1 6 81 -82 0
-2 -1 6 -81 83 0
-2 -1 6 -81 -83 0
11 -7 4 84 85 0
11 -7 4 84 -85 0
11 -7 4 -84 86 0
11 -7 4 -84 -86 0
17 18 -9 87 88 0
17 18 -9 87 -88 0
17 18 -9 -87 89 0
17 18 -9 -87 -89 0
17 6 -8 90 91 0
17 6 -8 90 -91 0
17 6 -8 -90 92 0
17 6 -8 -90 -92 0
6 11 5 93 94 0
6 11 5 93 -94 0
6 11 5 -93 95 0
6 11 5 -93 -95 0
-8 -4 -3 96 97 0
-8 -4 -3 96 -97 0
-8 -4 -3 -96 98 0
-8 -4 -3 -96 -98 0
-15 5 -6 99 100 0
-15 5 -6 99 -100 0
-15 5 -6 -99 101 0
-15 5 -6 -99 -101 0
-7 2 -16 102 103 0
-7 2 -16 102 -103 0
-7 2 -16 -102 104 0
-7 2 -16 -102 -104 0
-13 6 1 105 106 0
-13 6 1 105 -106 0
-13 6 1 -105 107 0
-13 6 1 -105 -107 0
-11 -15 -12 108 109 0
-11 -15 -12 108 -109 0
-11 -15 -12 -108 110 0
-11 -15 -12 -108 -110 0
-18 -6 -17 111 112 0
-18 -6 -17 111 -112 0
-18 -6 -17 -111 113 0
-18 -6 -17 -111 -113 0
18 -13 17 114 115 0
18 -13 17 114 -115 0
18 -13 17 -114 116 0
18 -13 17 -114 -116 0
-1 -18 -2 117 118 0
-1 -18 -2 117 -118 0
-1 -18 -2 -117 119 0
-1 -18 -2 -117 -119 0
-12 6 17 120 121 0
-12 6 17 120 -121 0
-12 6 17 -120 122 0
-12 6 17 -120 -122 0
-15 -20 -7 123 124 0
-15 -20 -7 123 -124 0
-15 -20 -7 -123 125 0
-15 -20 -7 -123 -125 0
8 3 17 126 127 0
8 3 17 126 -127 0
8 3 17 -126 128 0
8 3 17 -126 -128 0
5 13 4 129 130 0
5 13 4 129 -130 0
5 13 4 -129 131 0
5 13 4 -129 -131 0
8 -1 -7 132 133 0
8 -1 -7 132 -133 0
8 -1 -7 -132 134 0
8 -1 -7 -132 -134 0
16 19 -14 135 136 0
16 19 -14 135 -136 0
16 19 -14 -135 137 0
16 19 -14 -135 -137 0
3 19 -18 138 139 0
3 19 -18 138 -139 0
3 19 -18 -138 140 0
3 19 -18 -138 -140 0
9 16 -18 141 142 0
9 16 -18 141 -142 0
9 16 -18 -141 143 0
9 16 -18 -141 -143 0
-14 -7 -11 144 145 0
-14 -7 -11 144 -145 0
-14 -7 -11 -144 146 0
-14 -7 -11 -144 -146 0
2 15 9 147 148 0
2 15 9 147 -148 0
2 15 9 -147 149 0
2 15 9 -147 -149 0
1 7 -20 150 151 0
1 7 -20 150 -151 0
1 7 -20 -150 152 0
1 7 -20 -150 -152 0
-12 -8 -16 153 154 0
-12 -8 -16 153 -154 0
-12 -8 -16 -153 155 0
-12 -8 -16 -153 -155 0
-9 12 14 156 157 0
-9 12 14 156 -157 0
-9 12 14 -156 158 0
-9 12 14 -156 -158 0
-1 -19 4 159 160 0
-1 -19 4 159 -160 0
-1 -19 4 -159 161 0
-1 -19 4 -159 -161 0
-15 7 20 162 163 0
-15 7 20 162 -163 0
-15 7 20 -162 164 0
-15 7 20 -162 -164 0
-1 -20 9 165 166 0
-1 -20 9 165 -166 0
-1 -20 9 -165 167 0
-1 -20 9 -165 -167 0
-18 14 20 168 169 0
-18 14 20 168 -169 0
-18 14 20 -168 170 0
-18 14 20 -168 -170 0
-6 14 2 171 172 0
-6 14 2 171 -172 0
-6 14 2 -171 173 0
-6 14 2 -171 -173 0
-19 -12 13 174 175 0
-19 -12 13 174 -175 0
-19 -12 13 -174 176 0
-19 -12 13 -174 -176 0
-18 -12 8 177 178 0
-18 -12 8 177 -178 0
-18 -12 8 -177 179 0
-18 -12 8 -177 -179 0
13 12 -16 180 181 0
13 12 -16 180 -181 0
13 12 -16 -180 182 0
13 12 -16 -180 -182 0
-1 4 16 183 184 0
-1 4 16 183 -184 0
-1 4 16 -183 185 0
-1 4 16 -183 -185 0
-19 2 -6 186 187 0
-19 2 -6 186 -187 0
-19 2 -6 -186 188 0
-19 2 -6 -186 -188 0
17 -1 6 189 190 0
17 -1 6 189 -190 0
17 -1 6 -189 191 0
17 -1 6 -189 -191 0
17 9 15 192 193 0
17 9 15 192 -193 0
17 9 15 -192 194 0
17 9 15 -192 -194 0
11 -13 19 195 196 0
11 -13 19 195 -196 0
11 -13 19 -195 197 0
11 -13 19 -195 -197 0
-3 15 -11 198 199 0
-3 15 -11 198 -199 0
-3 15 -11 -198 200 0
-3 15 -11 -198 -200 0
2 8 20 201 202 0
2 8 20 201 -202 0
2 8 20 -201 203 0
2 8 20 -201 -203 0
-1 -2 7 204 205 0
-1 -2 7 204 -205 0
-1 -2 7 -204 206 0
-1 -2 7 -204 -206 0
-8 2 4 207 208 0
-8 2 4 207 -208 0
-8 2 4 -207 209 0
-8 2 4 -207 -209 0
2 14 -9 210 211 0
2 14 -9 210 -211 0
2 14 -9 -210 212 0
2 14 -9 -210 -212 0
10 -3 7 213 214 0
10 -3 7 213 -214 0
10 -3 7 -213 215 0
10 -3 7 -213 -215 0
-10 20 6 216 217 0
-10 20 6 216 -217 0
-10 20 6 -216 218 0
-10 20 6 -216 -218 0
18 -7 9 219 220 0
18 -7 9 219 -220 0
18 -7 9 -219 221 0
18 -7 9 -219 -221 0
-13 -5 3 222 223 0
-13 -5 3 222 -223 0
-13 -5 3 -222 224 0
-13 -5 3 -222 -224 0
6 17 15 225 226 0
6 17 15 225 -226 0
6 17 15 -225 227 0
6 17 15 -225 -227 0
15 -8 17 228 229 0
15 -8 17 228 -229 0
15 -8 17 -228 230 0
15 -8 17 -228 -230 0
12 19 -8 231 232 0
12 19 -8 231 -232 0
12 19 -8 -231 233 0
12 19 -8 -231 -233 0
7 10 3 234 235 0
7 10 3 234 -235 0
7 10 3 -234 236 0
7 10 3 -234 -236 0
-3 12 6 237 238 0
-3 12 6 237 -238 0
-3 12 6 -237 239 0
-3 12 6 -237 -239 0
-5 3 -7 240 241 0
-5 3 -7 240 -241 0
-5 3 -7 -240 242 0
-5 3 -7 -240 -242 0
9 2 -19 243 244 0
9 2 -19 243 -244 0
9 2 -19 -243 245 0
9 2 -19 -243 -245 0
-7 15 18 246 247 0
-7 15 18 246 -247 0
-7 15 18 -246 248 0
-7 15 18 -246 -248 0
-9 -10 -11 249 250 0
-9 -10 -11 249 -250 0
-9 -10 -11 -249 251 0
-9 -10 -11 -249 -251 0
-2 -7 20 252 253 0
-2 -7 20 252 -253 0
-2 -7 20 -252 254 0
-2 -7 20 -252 -254 0
4 17 16 255 256 0
4 17 16 255 -256 0
4 17 16 -255 257 0
4 17 16 -255 -257 0
-11 5 6 258 259 0
-11 5 6 258 -259 0
-11 5 6 -258 260 0
-11 5 6 -258 -260 0
2 1 17 261 262 0
2 1 17 261 -262 0
2 1 17 -261 263 0
2 1 17 -261 -263 0
-14 11 15 264 265 0
-14 11 15 264 -265 0
-14 11 15 -264 266 0
-14 11 15 -264 -266 0
-14 13 -9 267 268 0
-14 13 -9 267 -268 0
-14 13 -9 -267 269 0
-14 13 -9 -267 -269 0
-17 3 -13 270 271 0
-17 3 -13 270 -271 0
-17 3 -13 -270 272 0
-17 3 -13 -270 -272 0
9 -10 5 273 274 0
9 -10 5 273 -274 0
9 -10 5 -273 275 0
9 -10 5 -273 -275 0
6 19 -10 276 277 0
6 19 -10 276 -277 0
6 19 -10 -276 278 0
6 19 -10 -276 -278 0
6 17 1 279 280 0
6 17 1 279 -280 0
6 17 1 -279 281 0
6 17 1 -279 -281 0
-9 -2 20 282 283 0
-9 -2 20 282 -283 0
-9 -2 20 -282 284 0
-9 -2 20 -282 -284 0
15 12 -8 285 286 0
15 12 -8 285 -286 0
15 12 -8 -285 287 0
15 12 -8 -285 -287 0
-8 18 -3 288 289 0
-8 18 -3 288 -289 0
-8 18 -3 -288 290 0
-8 18 -3 -288 -290 0
20 6 -17 291 292 0
20 6 -17 291 -292 0
20 6 -17 -291 293 0
20 6 -17 -291 -293 0
294 295 297 301 309 0
294 295 297 301 -309 0
294 295 297 -301 310 0
294 295 297 -301 -310 0
294 295 -297 302 311 0
294 295 -297 302 -311 0
294 295 -297 -302 312 0
294 295 -297 -302 -312 0
294 -295 298 303 313 0
294 -295 298 303 -313 0
294 -295 298 -303 314 0
294 -295 298 -303 -314 0
294 -295 -298 304 315 0
294 -295 -298 304 -315 0
294 -295 -298 -304 316 0
294 -295 -298 -304 -316 0
-294 296 299 305 317 0
-294 296 299 305 -317 0
-294 296 299 -305 318 0
-294 296 299 -305 -318 0
-294 296 -299 306 319 0
-294 296 -299 306 -319 0
-294 296 -299 -306 320 0
-294 296 -299 -306 -320 0
-294 -296 300 307 321 0
-294 -296 300 307 -321 0
-294 -296 300 -307 322 0
-294 -296 300 -307 -322 0
-294 -296 -300 308 323 0
-294 -296 -300 308 -323 0
-294 -296 -300 -308 324 0
-294 -296 -300 -308 -324 0
325 326 328 332 340 0
325 326 328 332 -340 0
325 326 328 -332 341 0
325 326 328 -332 -341 0
325 326 -328 333 342 0
325 326 -328 333 -342 0
325 326 -328 -333 343 0
325 326 -328 -333 -343 0
325 -326 329 334 344 0
325 -326 329 334 -344 0
325 -326 329 -334 345 0
325 -326 329 -334 -345 0
325 -326 -329 335 346 0
325 -326 -329 335 -346 0
325 -326 -329 -335 347 0
325 -326 -329 -335 -347 0
-325 327 330 336 348 0
-325 327 330 336 -348 0
-325 327 330 -336 349 0
-325 327 330 -336 -349 0
-325 327 -330 337 350 0
-325 327 -330 337 -350 0
-325 327 -330 -337 351 0
-325 327 -330 -337 -351 0
-325 -327 331 338 352 0
-325 -327 331 338 -352 0
-325 -327 331 -338 353 0
-325 -327 331 -338 -353 0
-325 -327 -331 339 354 0
-325 -327 -331 339 -354 0
-325 -327 -331 -339 355 0
-325 -327 -331 -339 -355 0
356 357 359 363 371 0
356 357 359 363 -371 0
356 357 359 -363 372 0
356 357 359 -363 -372 0
356 357 -359 364 373 0
356 357 -359 364 -373 0
356 357 -359 -364 374 0
356 357 -359 -364 -374 0
356 -357 360 365 375 0
356 -357 360 365 -375 0
356 -357 360 -365 376 0
356 -357 360 -365 -376 0
356 -357 -360 366 377 0
356 -357 -360 366 -377 0
356 -357 -360 -366 378 0
356 -357 -360 -366 -378 0
-356 358 361 367 379 0
-356 358 361 367 -379 0
-356 358 361 -367 380 0
-356 358 361 -367 -380 0
-356 358 -361 368 381 0
-356 358 -361 368 -381 0
-356 358 -361 -368 382 0
-356 358 -361 -368 -382 0
-356 -358 362 369 383 0
-356 -358 362 369 -383 0
-356 -358 362 -369 384 0
-356 -358 362 -369 -384 0
-356 -358 -362 370 385 0
-356 -358 -362 370 -385 0
-356 -358 -362 -370 386 0
-356 -358 -362 -370 -386 0

